c preprocessed version of BN_80, 29 vertices, 287 edges
p td 29 287
1 0
7 0
8 0
1 2
6 1
1 3
5 1
16 1
13 1
3 2
5 2
10 2
3 4
6 3
5 3
14 3
15 3
16 3
5 4
11 4
14 4
5 6
9 5
7 5
8 5
10 5
11 5
14 5
16 5
17 5
7 6
8 6
16 6
7 8
9 7
10 7
12 7
11 7
14 7
15 7
16 7
17 7
13 7
9 8
10 8
12 8
11 8
14 8
15 8
16 8
17 8
13 8
10 9
12 9
14 9
15 9
16 9
17 9
13 9
10 11
10 12
10 13
10 17
10 14
10 15
10 16
12 11
11 13
11 17
11 14
11 15
11 16
12 13
12 17
12 14
12 15
12 16
14 13
15 13
16 13
17 13
14 15
14 16
14 17
15 16
15 17
16 17
18 28
18 11
18 23
18 0
18 4
18 1
18 27
18 19
18 10
18 13
18 12
18 21
18 24
18 5
18 17
18 9
18 20
18 22
18 25
18 14
18 15
18 26
18 16
19 28
19 11
19 23
19 2
19 21
19 24
19 27
19 10
19 13
19 12
19 5
19 17
19 20
19 22
19 25
19 14
19 15
19 26
19 16
20 28
20 23
20 21
20 0
20 24
20 6
20 5
20 8
20 9
20 7
20 26
20 25
20 22
20 10
20 12
20 11
20 14
20 15
20 16
20 27
20 17
20 13
21 28
21 23
21 0
21 1
21 4
21 6
21 24
21 5
21 9
21 22
21 25
21 26
21 8
21 10
21 14
21 16
21 27
21 17
22 28
22 23
22 0
22 1
22 4
22 24
22 5
22 8
22 9
22 7
22 26
22 25
22 10
22 12
22 11
22 14
22 15
22 16
22 27
22 17
22 13
23 28
23 2
23 24
23 5
23 25
23 26
23 10
23 11
23 27
23 17
24 28
24 0
24 1
24 2
24 3
24 4
24 6
24 5
24 9
24 25
24 26
24 8
24 10
24 11
24 14
24 16
24 27
24 17
24 13
25 28
25 0
25 1
25 6
25 5
25 8
25 9
25 7
25 26
25 10
25 12
25 11
25 14
25 15
25 16
25 27
25 17
25 13
26 28
26 0
26 1
26 2
26 3
26 4
26 6
26 5
26 8
26 9
26 7
26 10
26 12
26 11
26 14
26 15
26 16
26 27
26 17
26 13
27 28
27 10
27 12
27 11
27 14
27 15
27 16
27 13
27 5
27 17
27 9
27 7
27 8
28 0
28 1
28 3
28 4
28 6
28 5
28 8
28 7
28 9
28 10
28 12
28 11
28 14
28 15
28 16
28 17
28 13
